200
[40,41,42,48,49,50,51,53,54,56,58,59,60,61,62,63,64,66,67,70,71,72,73,75,76,77,78,80,82,87,88,91,94,95,96,97,99,100,101,105,112,116,117,119,120,124,126,127,130,133,134,135,136,138,140,142,146,148,149,150,151,152,153,154,155,156,158,159]
[1,3,1,1,1,1,1,3,1,1,1,3,1,1,1,1,1,1,1,1,1,1,1,1,2,1,2,1,2,4,1,1,1,2,1,1,2,2,2,1,1,1,4,2,2,1,1,2,2,1,1,2,1,1,1,1,1,2,1,1,2,1,2,2,1,2,3,2]
